1639675
16 28 30472
28 50 10810
50 31 71829
31 22 39447
22 14 67712
14 52 39276
52 33 101509
33 57 88918
57 18 27906
18 10 28652
10 44 75759
44 53 84806
53 37 6554
37 62 30446
62 39 8740
39 51 11004
51 35 8926
35 68 19070
68 8 34471
8 36 11459
36 59 8563
59 15 17397
15 58 6904
58 9 1777
9 17 5356
17 27 1445
27 45 8214
45 2 15587
2 48 7938
48 65 17626
65 13 18316
13 54 13536
54 1 18207
1 19 22804
19 49 8895
49 23 4353
23 6 16175
6 29 14521
29 60 6419
60 5 7979
5 40 3130
40 56 3489
56 32 1427
32 12 4813
12 42 4831
42 25 20310
25 30 1249
30 41 5056
41 11 52680
11 66 13370
66 26 57991
26 55 61621
55 34 20835
34 46 36286
46 43 69394
43 7 52950
7 67 19183
67 64 14572
64 38 25087
38 21 42598
21 3 17216
3 61 12947
61 24 5437
24 47 15612
47 20 12843
20 4 4440
4 63 25841
63 16 14689
